Geographic Exponential Decay
20 151 166 235 10 144 140 129 45 39 253 97 265 283 123 99 88 130 22 200 72
p edge 320 1227
e 0 208 3.0
e 0 151 79.0
e 0 128 1.0
e 1 18 1.0
e 1 38 2.0
e 1 153 1.0
e 1 222 12.0
e 1 133 6.0
e 2 233 1.0
e 2 17 6.0
e 2 264 4.0
e 3 261 21.0
e 3 205 43.0
e 3 246 3.0
e 3 9 39.0
e 3 241 33.0
e 3 295 32.0
e 3 15 12.0
e 3 37 3.0
e 3 269 16.0
e 3 298 29.0
e 3 150 39.0
e 3 17 18.0
e 3 286 24.0
e 3 190 28.0
e 3 20 42.0
e 3 312 36.0
e 3 282 16.0
e 3 121 6.0
e 3 302 20.0
e 4 163 5.0
e 4 26 5.0
e 5 241 1.0
e 5 161 2.0
e 6 186 1.0
e 6 148 1.0
e 6 301 4.0
e 7 142 1.0
e 7 161 1.0
e 8 99 29.0
e 8 55 1.0
e 8 216 1.0
e 9 308 5.0
e 9 69 9.0
e 9 64 9.0
e 9 128 6.0
e 10 162 7.0
e 10 200 16.0
e 10 110 47.0
e 10 134 8.0
e 10 310 28.0
e 10 237 57.0
e 10 65 96.0
e 10 63 1.0
e 10 31 7.0
e 10 197 87.0
e 10 261 2.0
e 10 306 50.0
e 10 307 48.0
e 10 145 2.0
e 10 259 1.0
e 10 41 99.0
e 10 38 63.0
e 10 117 16.0
e 10 291 1.0
e 10 54 65.0
e 10 94 25.0
e 10 36 63.0
e 10 123 89.0
e 10 290 56.0
e 10 85 59.0
e 10 167 88.0
e 10 90 50.0
e 10 292 23.0
e 10 240 41.0
e 10 247 88.0
e 10 213 98.0
e 10 27 52.0
e 10 285 90.0
e 10 119 42.0
e 10 70 61.0
e 10 241 72.0
e 10 18 38.0
e 11 312 5.0
e 11 21 5.0
e 11 157 1.0
e 12 282 5.0
e 12 151 78.0
e 13 53 1.0
e 13 177 1.0
e 14 107 1.0
e 14 18 1.0
e 15 183 3.0
e 15 23 22.0
e 15 298 14.0
e 15 165 12.0
e 15 126 50.0
e 15 230 45.0
e 15 119 33.0
e 15 28 34.0
e 15 191 9.0
e 15 52 38.0
e 15 142 15.0
e 15 247 47.0
e 15 197 30.0
e 15 258 20.0
e 15 101 11.0
e 15 5 20.0
e 15 300 43.0
e 15 16 2.0
e 16 196 1.0
e 16 99 52.0
e 17 300 2.0
e 19 20 2.0
e 19 313 11.0
e 21 264 4.0
e 21 255 1.0
e 22 187 82.0
e 22 75 86.0
e 22 51 4.0
e 22 21 98.0
e 22 77 95.0
e 22 73 22.0
e 22 181 36.0
e 22 237 72.0
e 22 316 20.0
e 22 278 73.0
e 22 141 26.0
e 22 202 57.0
e 22 67 4.0
e 22 80 80.0
e 22 179 33.0
e 22 24 75.0
e 22 11 98.0
e 22 127 22.0
e 22 52 59.0
e 22 115 96.0
e 22 299 88.0
e 22 170 1.0
e 22 236 7.0
e 22 174 98.0
e 22 279 22.0
e 22 35 13.0
e 22 171 70.0
e 22 306 13.0
e 22 166 23.0
e 22 84 19.0
e 22 223 46.0
e 22 219 29.0
e 22 130 56.0
e 22 74 54.0
e 22 216 58.0
e 22 79 31.0
e 22 98 31.0
e 23 74 1.0
e 24 204 6.0
e 24 168 2.0
e 25 146 3.0
e 25 164 3.0
e 26 151 71.0
e 26 227 45.0
e 26 301 10.0
e 26 238 1.0
e 27 269 4.0
e 27 112 12.0
e 27 155 6.0
e 27 257 1.0
e 28 125 2.0
e 29 135 1.0
e 29 192 1.0
e 29 97 96.0
e 30 268 1.0
e 30 315 8.0
e 31 73 14.0
e 32 92 2.0
e 32 104 2.0
e 32 150 3.0
e 33 8 1.0
e 33 6 1.0
e 34 262 1.0
e 34 107 3.0
e 35 314 3.0
e 35 7 4.0
e 36 28 1.0
e 37 270 1.0
e 39 274 95.0
e 39 302 62.0
e 39 294 96.0
e 39 238 45.0
e 39 42 31.0
e 39 268 45.0
e 39 235 82.0
e 39 49 10.0
e 39 23 50.0
e 39 71 71.0
e 39 262 44.0
e 39 214 38.0
e 39 213 62.0
e 39 139 98.0
e 39 81 34.0
e 39 153 74.0
e 39 163 71.0
e 39 189 24.0
e 39 5 74.0
e 39 79 96.0
e 39 254 92.0
e 39 166 68.0
e 39 89 83.0
e 39 175 19.0
e 39 284 45.0
e 39 186 9.0
e 39 66 77.0
e 39 187 38.0
e 39 301 1.0
e 39 137 27.0
e 39 162 22.0
e 39 192 17.0
e 39 47 38.0
e 39 138 74.0
e 39 200 5.0
e 39 11 87.0
e 39 144 21.0
e 40 44 1.0
e 40 48 1.0
e 40 240 1.0
e 40 23 2.0
e 40 219 4.0
e 41 64 1.0
e 41 198 5.0
e 42 312 16.0
e 42 78 3.0
e 42 272 7.0
e 42 318 20.0
e 42 189 2.0
e 42 197 13.0
e 42 11 17.0
e 42 124 15.0
e 42 245 24.0
e 43 120 1.0
e 43 191 1.0
e 43 214 2.0
e 44 102 1.0
e 45 25 91.0
e 45 3 20.0
e 45 194 78.0
e 45 308 95.0
e 45 183 5.0
e 45 109 96.0
e 45 121 33.0
e 45 185 72.0
e 45 68 63.0
e 45 117 80.0
e 45 9 68.0
e 45 305 7.0
e 45 264 94.0
e 45 56 90.0
e 45 106 48.0
e 45 20 57.0
e 45 12 1.0
e 45 155 90.0
e 45 249 60.0
e 45 4 28.0
e 45 255 32.0
e 45 231 69.0
e 45 267 3.0
e 45 0 9.0
e 45 70 88.0
e 45 69 45.0
e 45 193 8.0
e 45 172 52.0
e 45 76 8.0
e 45 256 80.0
e 45 211 64.0
e 45 198 97.0
e 45 89 51.0
e 45 265 72.0
e 45 180 15.0
e 45 195 68.0
e 45 221 96.0
e 46 136 1.0
e 46 256 1.0
e 47 69 2.0
e 47 67 5.0
e 47 2 1.0
e 47 200 56.0
e 48 178 1.0
e 49 156 1.0
e 50 66 3.0
e 50 85 1.0
e 51 114 2.0
e 51 190 2.0
e 52 131 5.0
e 52 199 7.0
e 52 136 19.0
e 52 252 4.0
e 52 122 1.0
e 52 68 7.0
e 52 279 22.0
e 52 128 25.0
e 53 260 2.0
e 54 303 11.0
e 55 88 92.0
e 56 83 2.0
e 57 185 3.0
e 57 233 5.0
e 57 293 3.0
e 58 234 3.0
e 58 47 11.0
e 59 179 5.0
e 59 136 4.0
e 59 187 1.0
e 60 247 10.0
e 60 159 6.0
e 60 287 2.0
e 60 173 8.0
e 60 133 9.0
e 61 171 4.0
e 61 48 1.0
e 62 249 1.0
e 62 248 4.0
e 63 69 5.0
e 65 256 1.0
e 65 117 1.0
e 66 132 5.0
e 70 252 3.0
e 70 22 35.0
e 70 24 7.0
e 71 33 1.0
e 71 275 10.0
e 72 309 34.0
e 72 199 63.0
e 72 305 50.0
e 72 211 73.0
e 72 234 95.0
e 72 98 13.0
e 72 35 60.0
e 72 186 55.0
e 72 184 75.0
e 72 275 70.0
e 72 306 45.0
e 72 229 98.0
e 72 264 31.0
e 72 105 94.0
e 72 160 12.0
e 72 146 91.0
e 72 68 76.0
e 72 193 22.0
e 72 316 63.0
e 72 290 9.0
e 72 29 82.0
e 72 282 52.0
e 72 100 42.0
e 72 215 42.0
e 72 19 93.0
e 72 310 81.0
e 72 318 26.0
e 72 203 43.0
e 72 6 90.0
e 72 76 28.0
e 72 38 77.0
e 72 291 78.0
e 72 233 91.0
e 72 2 15.0
e 72 36 55.0
e 72 135 67.0
e 72 64 53.0
e 73 48 18.0
e 73 32 7.0
e 73 297 9.0
e 73 141 5.0
e 73 197 7.0
e 73 286 10.0
e 73 78 12.0
e 73 267 7.0
e 74 173 4.0
e 75 241 14.0
e 75 236 15.0
e 75 28 15.0
e 75 9 5.0
e 75 94 21.0
e 75 288 3.0
e 75 36 16.0
e 75 284 24.0
e 75 239 15.0
e 76 217 8.0
e 77 313 2.0
e 79 213 5.0
e 80 218 5.0
e 80 136 5.0
e 81 73 1.0
e 81 4 1.0
e 82 227 38.0
e 82 97 43.0
e 83 182 1.0
e 84 196 3.0
e 84 150 1.0
e 86 279 8.0
e 86 40 5.0
e 86 210 1.0
e 87 218 5.0
e 87 44 2.0
e 88 56 14.0
e 88 157 26.0
e 88 191 22.0
e 88 317 22.0
e 88 310 80.0
e 88 86 20.0
e 88 146 75.0
e 88 182 48.0
e 88 178 32.0
e 88 72 66.0
e 88 280 40.0
e 88 126 28.0
e 88 227 86.0
e 88 315 65.0
e 88 112 29.0
e 88 2 14.0
e 88 90 67.0
e 88 201 21.0
e 88 73 21.0
e 88 278 12.0
e 88 238 6.0
e 88 256 85.0
e 88 233 39.0
e 88 82 98.0
e 88 174 28.0
e 88 91 31.0
e 88 183 10.0
e 88 28 57.0
e 88 37 29.0
e 88 96 97.0
e 88 23 17.0
e 88 167 88.0
e 88 127 91.0
e 88 244 1.0
e 88 155 88.0
e 88 306 35.0
e 91 223 3.0
e 91 264 3.0
e 91 118 5.0
e 91 31 1.0
e 91 152 15.0
e 91 47 14.0
e 91 280 11.0
e 91 181 22.0
e 91 203 1.0
e 92 305 2.0
e 92 241 3.0
e 93 85 2.0
e 93 313 2.0
e 94 16 2.0
e 94 157 17.0
e 94 186 14.0
e 94 56 11.0
e 94 50 21.0
e 94 224 22.0
e 94 83 18.0
e 94 195 13.0
e 95 279 1.0
e 95 33 11.0
e 95 195 13.0
e 95 101 6.0
e 95 80 24.0
e 95 206 7.0
e 95 65 23.0
e 95 156 7.0
e 95 4 5.0
e 95 270 15.0
e 96 315 10.0
e 96 197 17.0
e 96 255 5.0
e 96 214 21.0
e 96 293 4.0
e 96 144 91.0
e 96 212 4.0
e 96 135 5.0
e 96 100 22.0
e 97 180 40.0
e 97 150 8.0
e 97 162 9.0
e 97 227 6.0
e 97 30 90.0
e 97 265 32.0
e 97 148 34.0
e 97 296 49.0
e 97 137 78.0
e 97 311 50.0
e 97 307 26.0
e 97 138 15.0
e 97 190 27.0
e 97 38 6.0
e 97 300 1.0
e 97 50 33.0
e 97 70 46.0
e 97 264 19.0
e 97 168 5.0
e 97 173 90.0
e 97 117 6.0
e 97 301 89.0
e 97 98 82.0
e 97 223 99.0
e 97 92 58.0
e 97 247 21.0
e 97 57 17.0
e 97 195 10.0
e 97 213 88.0
e 97 36 48.0
e 97 179 87.0
e 97 178 64.0
e 97 158 5.0
e 97 318 30.0
e 97 54 35.0
e 99 215 41.0
e 99 257 47.0
e 99 17 5.0
e 99 109 11.0
e 99 233 60.0
e 99 2 76.0
e 99 105 28.0
e 99 33 32.0
e 99 252 1.0
e 99 35 5.0
e 99 151 22.0
e 99 136 37.0
e 99 57 16.0
e 99 237 32.0
e 99 59 79.0
e 99 71 48.0
e 99 260 47.0
e 99 261 68.0
e 99 262 50.0
e 99 85 17.0
e 99 316 22.0
e 99 26 22.0
e 99 64 17.0
e 99 232 44.0
e 99 94 54.0
e 99 189 66.0
e 99 263 93.0
e 99 174 98.0
e 99 103 44.0
e 99 217 8.0
e 99 76 38.0
e 99 90 96.0
e 99 231 77.0
e 99 284 72.0
e 99 122 63.0
e 101 32 9.0
e 101 254 4.0
e 101 197 6.0
e 102 7 4.0
e 102 245 5.0
e 103 267 10.0
e 104 44 3.0
e 104 194 3.0
e 105 67 13.0
e 105 252 20.0
e 105 52 18.0
e 105 17 5.0
e 105 44 12.0
e 105 165 6.0
e 105 38 3.0
e 105 261 1.0
e 106 131 1.0
e 106 41 5.0
e 107 209 2.0
e 108 196 1.0
e 108 76 1.0
e 110 85 4.0
e 110 209 4.0
e 111 261 2.0
e 111 22 98.0
e 113 255 2.0
e 113 96 23.0
e 113 36 1.0
e 114 273 3.0
e 114 133 5.0
e 115 289 14.0
e 115 96 20.0
e 115 26 10.0
e 115 71 16.0
e 115 302 24.0
e 115 242 9.0
e 115 16 9.0
e 115 135 8.0
e 115 278 24.0
e 116 194 2.0
e 116 187 4.0
e 118 54 2.0
e 120 192 1.0
e 123 216 49.0
e 123 244 12.0
e 123 267 16.0
e 123 197 75.0
e 123 124 38.0
e 123 269 69.0
e 123 96 67.0
e 123 164 99.0
e 123 9 98.0
e 123 76 96.0
e 123 210 77.0
e 123 14 84.0
e 123 152 64.0
e 123 62 31.0
e 123 141 33.0
e 123 91 36.0
e 123 300 93.0
e 123 25 83.0
e 123 43 96.0
e 123 111 29.0
e 123 286 70.0
e 123 137 50.0
e 123 268 83.0
e 123 143 74.0
e 123 120 90.0
e 123 0 36.0
e 123 186 36.0
e 123 217 79.0
e 123 128 19.0
e 123 153 2.0
e 123 125 68.0
e 123 231 82.0
e 123 263 29.0
e 123 241 85.0
e 123 148 19.0
e 123 287 57.0
e 126 41 2.0
e 126 303 5.0
e 126 176 1.0
e 129 261 75.0
e 129 1 87.0
e 129 232 29.0
e 129 38 74.0
e 129 65 55.0
e 129 122 90.0
e 129 260 50.0
e 129 229 71.0
e 129 299 84.0
e 129 185 27.0
e 129 283 51.0
e 129 259 92.0
e 129 286 41.0
e 129 257 46.0
e 129 71 76.0
e 129 61 78.0
e 129 310 88.0
e 129 126 55.0
e 129 200 89.0
e 129 91 23.0
e 129 277 65.0
e 129 201 75.0
e 129 72 35.0
e 129 105 53.0
e 129 104 23.0
e 129 213 46.0
e 129 15 6.0
e 129 73 53.0
e 129 298 1.0
e 129 120 41.0
e 129 282 91.0
e 129 137 80.0
e 129 194 39.0
e 129 290 79.0
e 129 287 69.0
e 129 186 77.0
e 129 241 49.0
e 130 247 45.0
e 130 69 28.0
e 130 300 5.0
e 130 2 83.0
e 130 0 31.0
e 130 127 33.0
e 130 246 62.0
e 130 193 50.0
e 130 24 30.0
e 130 135 72.0
e 130 194 100.0
e 130 229 40.0
e 130 83 37.0
e 130 21 96.0
e 130 284 17.0
e 130 294 67.0
e 130 9 52.0
e 130 318 47.0
e 130 234 44.0
e 130 33 19.0
e 130 18 86.0
e 130 41 48.0
e 130 25 85.0
e 130 131 11.0
e 130 3 17.0
e 130 159 12.0
e 130 16 12.0
e 130 304 30.0
e 130 262 73.0
e 130 250 79.0
e 130 1 55.0
e 130 253 36.0
e 130 75 42.0
e 130 53 93.0
e 130 118 95.0
e 130 76 57.0
e 132 70 12.0
e 132 169 1.0
e 134 259 6.0
e 134 69 6.0
e 134 260 11.0
e 134 63 7.0
e 138 131 4.0
e 139 222 2.0
e 139 176 4.0
e 140 82 97.0
e 140 141 89.0
e 140 304 56.0
e 140 306 82.0
e 140 220 60.0
e 140 221 33.0
e 140 218 64.0
e 140 108 52.0
e 140 36 1.0
e 140 279 17.0
e 140 259 2.0
e 140 291 87.0
e 140 150 52.0
e 140 68 25.0
e 140 61 23.0
e 140 312 27.0
e 140 257 45.0
e 140 73 48.0
e 140 94 28.0
e 140 95 3.0
e 140 234 59.0
e 140 142 83.0
e 140 222 26.0
e 140 96 96.0
e 140 287 19.0
e 140 3 64.0
e 140 124 99.0
e 140 152 10.0
e 140 26 58.0
e 140 314 20.0
e 140 174 64.0
e 140 296 37.0
e 140 32 9.0
e 140 232 60.0
e 140 170 14.0
e 140 34 83.0
e 140 253 25.0
e 143 153 9.0
e 143 147 12.0
e 143 66 23.0
e 143 284 11.0
e 143 174 16.0
e 143 197 11.0
e 143 207 21.0
e 143 311 5.0
e 143 292 23.0
e 144 31 21.0
e 144 170 25.0
e 144 83 4.0
e 144 152 39.0
e 144 163 28.0
e 144 276 64.0
e 144 110 59.0
e 144 178 67.0
e 144 72 51.0
e 144 6 34.0
e 144 254 86.0
e 144 48 43.0
e 144 123 94.0
e 144 73 30.0
e 144 157 58.0
e 144 204 19.0
e 144 156 66.0
e 144 12 7.0
e 144 28 52.0
e 144 53 53.0
e 144 146 38.0
e 144 301 71.0
e 144 136 62.0
e 144 106 90.0
e 144 239 28.0
e 144 49 45.0
e 144 130 65.0
e 144 226 17.0
e 144 84 19.0
e 144 171 40.0
e 144 54 23.0
e 144 293 66.0
e 144 245 49.0
e 144 272 1.0
e 144 5 18.0
e 145 302 4.0
e 147 168 8.0
e 149 16 3.0
e 149 166 9.0
e 149 212 19.0
e 151 142 17.0
e 151 120 15.0
e 151 150 2.0
e 151 168 26.0
e 151 118 3.0
e 151 194 87.0
e 151 233 29.0
e 151 286 70.0
e 151 315 7.0
e 151 148 9.0
e 151 146 27.0
e 151 235 69.0
e 151 283 67.0
e 151 44 45.0
e 151 85 24.0
e 151 42 43.0
e 151 220 14.0
e 151 195 32.0
e 151 254 2.0
e 151 308 54.0
e 151 172 71.0
e 151 52 2.0
e 151 56 27.0
e 151 217 22.0
e 151 262 95.0
e 151 257 80.0
e 151 255 86.0
e 151 231 5.0
e 151 260 84.0
e 151 226 16.0
e 151 280 71.0
e 151 43 93.0
e 151 6 37.0
e 152 309 10.0
e 154 71 5.0
e 154 8 5.0
e 158 43 8.0
e 158 98 5.0
e 158 16 9.0
e 158 108 7.0
e 160 65 1.0
e 163 202 11.0
e 163 166 24.0
e 164 258 19.0
e 164 228 23.0
e 164 87 17.0
e 164 225 3.0
e 164 217 16.0
e 164 53 9.0
e 164 298 24.0
e 164 259 7.0
e 165 229 6.0
e 165 251 11.0
e 165 117 11.0
e 166 318 51.0
e 166 150 80.0
e 166 195 58.0
e 166 72 34.0
e 166 13 72.0
e 166 253 100.0
e 166 279 90.0
e 166 18 9.0
e 166 168 7.0
e 166 2 73.0
e 166 198 91.0
e 166 196 79.0
e 166 28 79.0
e 166 194 77.0
e 166 36 22.0
e 166 70 86.0
e 166 60 65.0
e 166 170 71.0
e 166 270 26.0
e 166 265 40.0
e 166 131 31.0
e 166 213 52.0
e 166 14 36.0
e 166 186 68.0
e 166 300 33.0
e 166 100 58.0
e 166 256 41.0
e 166 164 83.0
e 166 182 64.0
e 166 197 93.0
e 166 171 1.0
e 166 220 20.0
e 166 264 90.0
e 169 216 1.0
e 171 34 3.0
e 175 18 2.0
e 177 12 1.0
e 179 217 11.0
e 179 299 8.0
e 181 18 5.0
e 181 200 85.0
e 181 83 3.0
e 184 166 85.0
e 188 56 2.0
e 188 199 1.0
e 195 230 4.0
e 195 50 6.0
e 195 87 15.0
e 195 86 16.0
e 200 54 84.0
e 200 252 63.0
e 200 131 41.0
e 200 29 3.0
e 200 288 52.0
e 200 157 19.0
e 200 317 94.0
e 200 169 70.0
e 200 223 83.0
e 200 201 44.0
e 200 121 23.0
e 200 77 1.0
e 200 57 1.0
e 200 171 82.0
e 200 59 27.0
e 200 208 73.0
e 200 232 82.0
e 200 40 99.0
e 200 111 81.0
e 200 284 89.0
e 200 78 3.0
e 200 247 18.0
e 200 155 96.0
e 200 132 98.0
e 200 244 22.0
e 200 124 65.0
e 200 90 21.0
e 200 11 23.0
e 200 136 50.0
e 200 192 42.0
e 200 279 35.0
e 200 71 6.0
e 201 295 9.0
e 201 244 12.0
e 202 61 3.0
e 205 244 1.0
e 206 53 2.0
e 207 100 3.0
e 207 44 1.0
e 210 188 1.0
e 212 310 4.0
e 212 60 27.0
e 212 71 11.0
e 212 97 53.0
e 212 261 45.0
e 212 98 34.0
e 212 151 73.0
e 212 198 26.0
e 212 284 27.0
e 212 61 30.0
e 212 181 50.0
e 212 164 34.0
e 212 230 28.0
e 212 50 3.0
e 212 47 2.0
e 212 19 1.0
e 212 78 28.0
e 219 268 1.0
e 221 185 1.0
e 221 225 4.0
e 221 46 1.0
e 223 243 1.0
e 224 154 3.0
e 225 175 4.0
e 227 282 6.0
e 227 160 13.0
e 227 113 2.0
e 227 272 29.0
e 227 161 2.0
e 227 213 39.0
e 227 241 13.0
e 227 262 17.0
e 227 27 3.0
e 227 196 20.0
e 227 194 29.0
e 227 57 21.0
e 227 68 47.0
e 227 7 34.0
e 227 243 14.0
e 228 96 15.0
e 235 188 54.0
e 235 40 61.0
e 235 248 59.0
e 235 21 22.0
e 235 75 11.0
e 235 152 50.0
e 235 130 70.0
e 235 198 97.0
e 235 193 52.0
e 235 266 21.0
e 235 278 44.0
e 235 214 73.0
e 235 259 28.0
e 235 8 37.0
e 235 139 71.0
e 235 187 14.0
e 235 120 70.0
e 235 184 38.0
e 235 257 89.0
e 235 238 53.0
e 235 116 39.0
e 235 231 32.0
e 235 205 4.0
e 235 261 48.0
e 235 256 36.0
e 235 54 18.0
e 235 85 62.0
e 235 24 21.0
e 235 264 33.0
e 235 0 58.0
e 235 253 90.0
e 235 142 35.0
e 235 13 70.0
e 235 81 20.0
e 235 267 84.0
e 236 241 11.0
e 236 202 3.0
e 236 1 12.0
e 236 69 17.0
e 236 158 23.0
e 236 194 21.0
e 236 48 6.0
e 236 58 7.0
e 240 90 7.0
e 240 192 7.0
e 240 247 4.0
e 242 285 5.0
e 248 150 3.0
e 250 113 2.0
e 250 125 6.0
e 251 160 5.0
e 251 235 48.0
e 253 155 99.0
e 253 61 10.0
e 253 220 80.0
e 253 274 73.0
e 253 89 26.0
e 253 131 12.0
e 253 77 27.0
e 253 260 63.0
e 253 58 44.0
e 253 239 2.0
e 253 139 60.0
e 253 196 87.0
e 253 10 49.0
e 253 108 56.0
e 253 228 1.0
e 253 38 64.0
e 253 19 9.0
e 253 107 14.0
e 253 36 42.0
e 253 111 67.0
e 253 289 73.0
e 253 119 97.0
e 253 98 44.0
e 253 132 40.0
e 253 231 19.0
e 253 152 26.0
e 253 32 93.0
e 253 197 15.0
e 253 263 91.0
e 253 174 86.0
e 253 257 71.0
e 253 251 71.0
e 253 264 74.0
e 258 134 2.0
e 265 272 66.0
e 265 317 14.0
e 265 84 99.0
e 265 148 19.0
e 265 35 67.0
e 265 82 67.0
e 265 46 73.0
e 265 7 19.0
e 265 55 13.0
e 265 293 19.0
e 265 200 21.0
e 265 251 66.0
e 265 72 36.0
e 265 94 72.0
e 265 56 94.0
e 265 234 48.0
e 265 27 45.0
e 265 164 58.0
e 265 26 6.0
e 265 301 75.0
e 265 307 92.0
e 265 142 69.0
e 265 266 63.0
e 265 8 6.0
e 265 227 48.0
e 265 58 85.0
e 265 177 27.0
e 265 314 22.0
e 265 143 18.0
e 265 250 73.0
e 265 122 71.0
e 265 77 16.0
e 265 255 64.0
e 265 306 99.0
e 271 157 5.0
e 271 209 2.0
e 271 130 94.0
e 271 123 33.0
e 271 15 42.0
e 273 137 2.0
e 274 303 9.0
e 275 24 15.0
e 275 34 22.0
e 275 180 1.0
e 275 177 19.0
e 275 41 13.0
e 275 64 21.0
e 275 236 7.0
e 275 4 14.0
e 276 53 1.0
e 277 128 1.0
e 277 127 3.0
e 281 252 4.0
e 281 317 3.0
e 281 57 1.0
e 283 281 98.0
e 283 28 84.0
e 283 31 26.0
e 283 142 16.0
e 283 278 67.0
e 283 88 80.0
e 283 295 5.0
e 283 108 84.0
e 283 208 56.0
e 283 58 24.0
e 283 117 65.0
e 283 162 40.0
e 283 165 3.0
e 283 247 26.0
e 283 198 34.0
e 283 158 15.0
e 283 4 22.0
e 283 168 50.0
e 283 147 4.0
e 283 255 88.0
e 283 252 57.0
e 283 260 29.0
e 283 301 61.0
e 283 166 1.0
e 283 1 84.0
e 283 118 29.0
e 283 8 17.0
e 283 66 89.0
e 283 124 87.0
e 283 193 91.0
e 283 78 75.0
e 283 98 64.0
e 283 32 8.0
e 283 222 43.0
e 283 14 1.0
e 285 53 2.0
e 287 295 20.0
e 287 191 1.0
e 287 315 6.0
e 287 264 22.0
e 287 110 2.0
e 287 205 17.0
e 288 24 6.0
e 288 177 7.0
e 288 271 2.0
e 292 103 3.0
e 292 150 42.0
e 292 201 20.0
e 292 36 20.0
e 292 177 24.0
e 292 66 12.0
e 292 253 1.0
e 292 205 11.0
e 292 136 37.0
e 292 35 19.0
e 292 247 24.0
e 292 306 41.0
e 292 43 46.0
e 292 153 46.0
e 292 17 44.0
e 292 258 31.0
e 292 269 9.0
e 296 10 6.0
e 296 176 9.0
e 296 174 4.0
e 297 262 1.0
e 302 222 49.0
e 302 167 24.0
e 302 38 32.0
e 302 74 32.0
e 302 121 37.0
e 302 102 49.0
e 302 101 40.0
e 302 109 12.0
e 302 46 26.0
e 302 187 45.0
e 302 156 35.0
e 302 226 32.0
e 302 30 20.0
e 302 242 14.0
e 302 40 43.0
e 303 56 8.0
e 303 97 50.0
e 303 76 18.0
e 303 86 14.0
e 303 170 24.0
e 303 103 21.0
e 303 196 19.0
e 304 61 1.0
e 308 198 9.0
e 308 70 2.0
e 311 149 5.0
e 313 234 17.0
e 313 71 21.0
e 313 0 3.0
e 313 237 22.0
e 313 95 22.0
e 313 211 19.0
e 313 176 15.0
e 316 115 4.0
e 316 273 12.0
e 319 170 8.0
e 319 13 5.0
e 319 84 3.0
e 319 230 11.0
e 319 305 11.0
